sat
(:max-memory          18.23
 :memory              17.65
 :num-allocs          4543676
 :rlimit-count        107056
 :sls-constraints     747
 :sls-ddfw-flips      28783.00
 :sls-ddfw-reinits    2
 :sls-ddfw-restarts   8
 :sls-ddfw-shifts     17330.00
 :sls.euf-conflict    747
 :solve-eqs-elim-vars 4
 :solve-eqs-steps     8
 :time                0.06
 :total-time          0.06)
